99
46
12
38
31
93
41
71
30
22
63
66
16
55
86
25
92
4
70
5
18
1
89
97
27
59
11
65
95
96
62
77
40
10
15
68
39
21
74
48
8
83
81
45
28
72
60
58
33
9
80
36
14
94
73
29
75
7
69
23
88
56
84
91
20
64
47
53
0
42
2
51
87
67
26
82
43
44
24
37
79
6
78
49
90
32
85
17
98
57
61
19
13
54
50
35
52
34
76
3
